1612170000
1612184400
1612256400
1612270800
1612342800
1612357200
1612429200
1612443600
1612515600
1612530000
1612776600
1612791000
1612861200
1612875600
1612947600
1612962000
1613035800
1613050200
1613120400
1613134800
1613380200
1613394600
1613466000
1613480400
1613541600
1613556000
1613638800
1613653200
1613725200
1613739600
1613984400
1613998800
1614070800
1614085200
1614157800
1614172200
1614243600
1614258000
1614330300
1614344700
